c colouring generated by benchmark framework
p edge 74 301
v 1 7
v 2 0
v 3 0
v 4 6
v 5 10
v 6 9
v 7 3
v 8 5
v 9 1
v 10 9
v 11 9
v 12 1
v 13 8
v 14 4
v 15 10
v 16 0
v 17 6
v 18 9
v 19 9
v 20 0
v 21 5
v 22 5
v 23 1
v 24 6
v 25 3
v 26 9
v 27 0
v 28 0
v 29 1
v 30 3
v 31 0
v 32 7
v 33 1
v 34 2
v 35 5
v 36 0
v 37 8
v 38 2
v 39 7
v 40 5
v 41 2
v 42 0
v 43 5
v 44 3
v 45 1
v 46 7
v 47 0
v 48 6
v 49 0
v 50 2
v 51 7
v 52 6
v 53 2
v 54 0
v 55 4
v 56 3
v 57 10
v 58 1
v 59 6
v 60 1
v 61 0
v 62 8
v 63 0
v 64 3
v 65 8
v 66 0
v 67 3
v 68 5
v 69 9
v 70 0
v 71 4
v 72 2
v 73 8
v 74 1
